npieces = 10;	
nplayers = 5;	
duration = [5, 2, 4, 4, 5, 5, 9, 3, 1, 1];
rehearsal = [[1, 0, 1, 0, 0, 0, 0, 1, 1, 1], [1, 0, 1, 1, 0, 1, 0, 1, 1, 1], [1, 1, 0, 1, 1, 1, 1, 1, 0, 0], [1, 1, 1, 1, 1, 1, 1, 1, 1, 1], [1, 1, 0, 1, 0, 1, 1, 1, 1, 1]];
